c WARNING: for repeatability, setting FPU to use double precision
d VARIABLES            203970       
d CONSTRAINTS          925437       
c ============================[ Problem Statistics ]=============================
c |                                                                             |
c |  Number of variables:        203970                                         |
c |  Number of clauses:          925437                                         |
c |  Parse time:                   0.16 s                                       |
c |                                                                             |
c ============================[ Search Statistics ]==============================
c | Conflicts |          ORIGINAL         |          LEARNT          | Progress |
c |           |    Vars  Clauses Literals |    Limit  Clauses Lit/Cl |          |
c ===============================================================================
c |       100 |  177995   851161  2059850 |   312092      100      9 | 12.735 % |
c |       250 |  177995   851161  2059850 |   343301      250      8 | 12.735 % |
c |       475 |  177995   851161  2059850 |   377631      475     30 | 12.735 % |
c |       812 |  177995   851161  2059850 |   415394      812     59 | 12.735 % |
c |      1318 |  177995   851161  2059850 |   456934     1318     88 | 12.735 % |
c |      2077 |  177995   851161  2059850 |   502627     2077     83 | 12.735 % |
c |      3216 |  177995   851161  2059850 |   552890     3216    106 | 12.735 % |
c |      4924 |  177995   851161  2059850 |   608179     4924    105 | 12.735 % |
c |      7486 |  177995   851161  2059850 |   668997     7486    141 | 12.735 % |
c |     11330 |  177995   851161  2059850 |   735897    11330    136 | 12.735 % |
c |     17096 |  177995   851161  2059850 |   809487    17096    129 | 12.735 % |
c |     25745 |  177995   851161  2059850 |   890435    25745    146 | 12.735 % |
c |     38719 |  177993   851142  2059807 |   979479    38708    150 | 12.736 % |
c |     58180 |  177993   851142  2059807 |  1077427    58169    152 | 12.736 % |
c |     87372 |  177992   851127  2059769 |  1185170    87358    164 | 12.736 % |
c |    131161 |  177991   851112  2059731 |  1303687   131101    185 | 12.737 % |
c |    196845 |  177987   851069  2059630 |  1434055   196758    194 | 12.739 % |
c |    295371 |  177914   850537  2058333 |  1577461   294626    202 | 12.774 % |
c ===============================================================================
c restarts              : 766
c conflicts             : 324086         (1360 /sec)
c decisions             : 1682359        (0.00 % random) (7058 /sec)
c propagations          : 860039813      (3608172 /sec)
c conflict literals     : 61567680       (23.14 % deleted)
d RESTARTS             766
d FAILURES             324086       
d NODES                1682359      
d BACKTRACKS           1682359      
d PROPAGATIONS         860039813    
d NOGOODSIZE           189.97 
d MEMORY               415.00 
d TIME                 238.359 

s UNSATISFIABLE
